7

0   4   2   14   12   14   14
4   0   15   0   0   23   1
2   15   0   8   10   14   20
14   0   8   0   7   2   13
12   0   10   7   0   14   9
14   23   14   2   14   0   21
14   1   20   13   9   21   0

0   50   23   33   58   57   18
50   0   27   17   16   23   34
23   27   0   16   35   34   25
33   17   16   0   29   24   41
58   16   35   29   0   39   42
57   23   34   24   39   0   51
18   34   25   41   42  51   0